NAME : eil101.tsp
COMMENT : Optimal tour for eil101.tsp
TYPE : TOUR
DIMENSION : 101
Total Length: 681.404329798373
TOUR_SECTION
1
50
76
28
101
27
52
89
18
83
60
5
84
17
45
46
8
82
48
47
36
49
64
11
19
7
88
31
62
10
63
90
32
66
65
71
35
34
78
29
24
55
25
67
39
4
21
73
72
56
23
75
74
22
41
15
43
14
42
57
2
87
97
92
37
100
91
44
38
86
16
61
85
98
93
59
99
96
6
94
95
13
58
53
40
26
12
54
80
68
77
3
79
33
81
9
51
20
30
70
69
-1
EOF
